% Generated by MiniZinc 2.9.3
% Solver library: /home/icwmmarijnisse/Pumpkin/minizinc/lib
% Command line invocation: minizinc --compile --fzn ./instance.fzn --ozn ./instance.ozn --solver pumpkin ../../../../benchmarks/models/rcpsp/rcpsp.mzn ../../../../benchmarks/models/rcpsp/J120_34_7.dzn 

predicate pumpkin_cumulative(array [int] of var int: s,array [int] of int: d,array [int] of int: r,int: b);
array [1..2] of int: X_INTRODUCED_139_ = [1,-1];
array [1..91] of int: X_INTRODUCED_256_ = [5,6,8,9,9,7,9,1,5,10,6,6,5,5,5,10,9,1,8,5,10,1,5,7,7,6,5,5,7,1,2,3,10,10,3,3,8,7,10,2,2,9,10,10,5,3,7,1,1,1,1,9,4,3,6,3,1,3,4,1,1,4,8,9,5,10,5,8,9,2,9,7,1,6,6,1,6,4,5,6,3,3,5,1,4,5,7,1,7,9,10];
array [1..91] of int: X_INTRODUCED_257_ = [8,7,10,9,1,2,3,8,3,9,7,9,9,2,7,7,3,4,10,9,2,7,8,9,2,7,2,7,6,3,10,3,9,5,1,6,1,8,2,10,6,2,1,4,5,5,7,6,7,6,6,9,10,6,3,7,10,6,6,10,3,6,1,10,3,5,3,3,6,9,7,3,9,3,10,5,2,7,3,2,9,3,9,10,4,3,9,4,7,4,8];
array [1..95] of int: X_INTRODUCED_259_ = [6,1,1,9,8,2,4,10,8,1,1,7,3,1,7,8,10,4,4,10,9,1,4,7,9,7,10,7,9,8,5,2,8,3,4,9,3,4,9,10,1,5,5,8,7,1,4,7,8,3,8,7,9,9,1,9,1,3,3,3,2,8,10,9,2,10,8,7,2,1,7,6,1,1,5,10,5,3,2,10,9,7,4,8,3,3,10,6,10,9,2,5,7,2,5];
array [1..95] of int: X_INTRODUCED_260_ = [3,8,7,10,1,3,6,8,3,9,9,10,10,9,2,7,3,4,10,9,2,8,8,2,7,2,7,6,3,10,3,9,9,5,1,1,8,2,6,7,3,2,1,4,5,2,9,5,7,7,6,6,7,2,9,10,6,3,1,10,6,1,6,10,8,6,1,9,10,3,5,3,9,3,9,2,8,5,2,5,7,3,2,3,9,10,4,3,5,9,6,4,7,8,4];
array [1..83] of int: X_INTRODUCED_262_ = [1,3,6,1,4,9,6,4,6,2,7,3,10,1,10,3,2,9,1,6,4,5,5,6,3,9,4,3,6,6,5,9,3,6,9,2,8,6,5,5,2,7,1,4,7,6,7,3,8,10,1,7,5,2,6,6,1,2,2,6,5,2,4,3,5,2,5,5,4,6,4,7,5,1,3,9,9,3,1,4,10,7,8];
array [1..83] of int: X_INTRODUCED_263_ = [3,8,7,10,9,2,3,3,10,9,2,7,10,9,7,8,9,2,7,7,3,10,3,9,5,1,1,2,2,10,3,7,3,2,1,5,2,9,5,7,6,7,6,6,4,2,9,6,3,1,7,10,6,6,8,3,6,9,10,3,5,3,6,9,7,3,9,3,2,8,5,2,5,3,3,9,10,4,5,9,6,4,8];
array [1..91] of int: X_INTRODUCED_265_ = [9,9,2,1,10,7,2,7,1,4,1,10,1,6,10,6,1,8,4,9,1,4,8,3,3,4,9,5,5,4,9,5,4,9,8,1,10,4,2,5,7,8,7,3,4,10,5,2,7,9,2,6,8,7,3,3,9,3,5,3,5,4,1,1,1,7,6,1,6,3,1,9,9,6,5,6,8,8,4,7,3,3,7,3,7,3,9,8,7,8,7];
array [1..91] of int: X_INTRODUCED_266_ = [8,7,10,9,1,2,3,6,9,7,9,10,10,7,3,4,10,2,8,7,8,9,2,6,10,9,9,1,6,1,2,2,10,3,7,3,2,1,4,5,9,2,9,5,6,9,7,6,6,7,6,4,2,9,6,3,1,10,6,1,10,8,6,1,9,10,3,3,6,10,9,3,3,2,8,2,5,3,2,9,3,9,4,3,5,6,4,7,8,4,8];
array [1..2] of int: X_INTRODUCED_270_ = [1,-1];
var 0..698: X_INTRODUCED_16_;
var 0..698: X_INTRODUCED_17_;
var 0..698: X_INTRODUCED_18_;
var 0..698: X_INTRODUCED_19_;
var 0..698: X_INTRODUCED_20_;
var 0..698: X_INTRODUCED_21_;
var 0..698: X_INTRODUCED_22_;
var 0..698: X_INTRODUCED_23_;
var 0..698: X_INTRODUCED_24_;
var 0..698: X_INTRODUCED_25_;
var 0..698: X_INTRODUCED_26_;
var 0..698: X_INTRODUCED_27_;
var 0..698: X_INTRODUCED_28_;
var 0..698: X_INTRODUCED_29_;
var 0..698: X_INTRODUCED_30_;
var 0..698: X_INTRODUCED_31_;
var 0..698: X_INTRODUCED_32_;
var 0..698: X_INTRODUCED_33_;
var 0..698: X_INTRODUCED_34_;
var 0..698: X_INTRODUCED_35_;
var 0..698: X_INTRODUCED_36_;
var 0..698: X_INTRODUCED_37_;
var 0..698: X_INTRODUCED_38_;
var 0..698: X_INTRODUCED_39_;
var 0..698: X_INTRODUCED_40_;
var 0..698: X_INTRODUCED_41_;
var 0..698: X_INTRODUCED_42_;
var 0..698: X_INTRODUCED_43_;
var 0..698: X_INTRODUCED_44_;
var 0..698: X_INTRODUCED_45_;
var 0..698: X_INTRODUCED_46_;
var 0..698: X_INTRODUCED_47_;
var 0..698: X_INTRODUCED_48_;
var 0..698: X_INTRODUCED_49_;
var 0..698: X_INTRODUCED_50_;
var 0..698: X_INTRODUCED_51_;
var 0..698: X_INTRODUCED_52_;
var 0..698: X_INTRODUCED_53_;
var 0..698: X_INTRODUCED_54_;
var 0..698: X_INTRODUCED_55_;
var 0..698: X_INTRODUCED_56_;
var 0..698: X_INTRODUCED_57_;
var 0..698: X_INTRODUCED_58_;
var 0..698: X_INTRODUCED_59_;
var 0..698: X_INTRODUCED_60_;
var 0..698: X_INTRODUCED_61_;
var 0..698: X_INTRODUCED_62_;
var 0..698: X_INTRODUCED_63_;
var 0..698: X_INTRODUCED_64_;
var 0..698: X_INTRODUCED_65_;
var 0..698: X_INTRODUCED_66_;
var 0..698: X_INTRODUCED_67_;
var 0..698: X_INTRODUCED_68_;
var 0..698: X_INTRODUCED_69_;
var 0..698: X_INTRODUCED_70_;
var 0..698: X_INTRODUCED_71_;
var 0..698: X_INTRODUCED_72_;
var 0..698: X_INTRODUCED_73_;
var 0..698: X_INTRODUCED_74_;
var 0..698: X_INTRODUCED_75_;
var 0..698: X_INTRODUCED_76_;
var 0..698: X_INTRODUCED_77_;
var 0..698: X_INTRODUCED_78_;
var 0..698: X_INTRODUCED_79_;
var 0..698: X_INTRODUCED_80_;
var 0..698: X_INTRODUCED_81_;
var 0..698: X_INTRODUCED_82_;
var 0..698: X_INTRODUCED_83_;
var 0..698: X_INTRODUCED_84_;
var 0..698: X_INTRODUCED_85_;
var 0..698: X_INTRODUCED_86_;
var 0..698: X_INTRODUCED_87_;
var 0..698: X_INTRODUCED_88_;
var 0..698: X_INTRODUCED_89_;
var 0..698: X_INTRODUCED_90_;
var 0..698: X_INTRODUCED_91_;
var 0..698: X_INTRODUCED_92_;
var 0..698: X_INTRODUCED_93_;
var 0..698: X_INTRODUCED_94_;
var 0..698: X_INTRODUCED_95_;
var 0..698: X_INTRODUCED_96_;
var 0..698: X_INTRODUCED_97_;
var 0..698: X_INTRODUCED_98_;
var 0..698: X_INTRODUCED_99_;
var 0..698: X_INTRODUCED_100_;
var 0..698: X_INTRODUCED_101_;
var 0..698: X_INTRODUCED_102_;
var 0..698: X_INTRODUCED_103_;
var 0..698: X_INTRODUCED_104_;
var 0..698: X_INTRODUCED_105_;
var 0..698: X_INTRODUCED_106_;
var 0..698: X_INTRODUCED_107_;
var 0..698: X_INTRODUCED_108_;
var 0..698: X_INTRODUCED_109_;
var 0..698: X_INTRODUCED_110_;
var 0..698: X_INTRODUCED_111_;
var 0..698: X_INTRODUCED_112_;
var 0..698: X_INTRODUCED_113_;
var 0..698: X_INTRODUCED_114_;
var 0..698: X_INTRODUCED_115_;
var 0..698: X_INTRODUCED_116_;
var 0..698: X_INTRODUCED_117_;
var 0..698: X_INTRODUCED_118_;
var 0..698: X_INTRODUCED_119_;
var 0..698: X_INTRODUCED_120_;
var 0..698: X_INTRODUCED_121_;
var 0..698: X_INTRODUCED_122_;
var 0..698: X_INTRODUCED_123_;
var 0..698: X_INTRODUCED_124_;
var 0..698: X_INTRODUCED_125_;
var 0..698: X_INTRODUCED_126_;
var 0..698: X_INTRODUCED_127_;
var 0..698: X_INTRODUCED_128_;
var 0..698: X_INTRODUCED_129_;
var 0..698: X_INTRODUCED_130_;
var 0..698: X_INTRODUCED_131_;
var 0..698: X_INTRODUCED_132_;
var 0..698: X_INTRODUCED_133_;
var 0..698: X_INTRODUCED_134_;
var 0..698: X_INTRODUCED_135_;
var 0..699: Objective:: output_var;
array [1..120] of var int: Start:: output_array([1..120]) = [X_INTRODUCED_16_,X_INTRODUCED_17_,X_INTRODUCED_18_,X_INTRODUCED_19_,X_INTRODUCED_20_,X_INTRODUCED_21_,X_INTRODUCED_22_,X_INTRODUCED_23_,X_INTRODUCED_24_,X_INTRODUCED_25_,X_INTRODUCED_26_,X_INTRODUCED_27_,X_INTRODUCED_28_,X_INTRODUCED_29_,X_INTRODUCED_30_,X_INTRODUCED_31_,X_INTRODUCED_32_,X_INTRODUCED_33_,X_INTRODUCED_34_,X_INTRODUCED_35_,X_INTRODUCED_36_,X_INTRODUCED_37_,X_INTRODUCED_38_,X_INTRODUCED_39_,X_INTRODUCED_40_,X_INTRODUCED_41_,X_INTRODUCED_42_,X_INTRODUCED_43_,X_INTRODUCED_44_,X_INTRODUCED_45_,X_INTRODUCED_46_,X_INTRODUCED_47_,X_INTRODUCED_48_,X_INTRODUCED_49_,X_INTRODUCED_50_,X_INTRODUCED_51_,X_INTRODUCED_52_,X_INTRODUCED_53_,X_INTRODUCED_54_,X_INTRODUCED_55_,X_INTRODUCED_56_,X_INTRODUCED_57_,X_INTRODUCED_58_,X_INTRODUCED_59_,X_INTRODUCED_60_,X_INTRODUCED_61_,X_INTRODUCED_62_,X_INTRODUCED_63_,X_INTRODUCED_64_,X_INTRODUCED_65_,X_INTRODUCED_66_,X_INTRODUCED_67_,X_INTRODUCED_68_,X_INTRODUCED_69_,X_INTRODUCED_70_,X_INTRODUCED_71_,X_INTRODUCED_72_,X_INTRODUCED_73_,X_INTRODUCED_74_,X_INTRODUCED_75_,X_INTRODUCED_76_,X_INTRODUCED_77_,X_INTRODUCED_78_,X_INTRODUCED_79_,X_INTRODUCED_80_,X_INTRODUCED_81_,X_INTRODUCED_82_,X_INTRODUCED_83_,X_INTRODUCED_84_,X_INTRODUCED_85_,X_INTRODUCED_86_,X_INTRODUCED_87_,X_INTRODUCED_88_,X_INTRODUCED_89_,X_INTRODUCED_90_,X_INTRODUCED_91_,X_INTRODUCED_92_,X_INTRODUCED_93_,X_INTRODUCED_94_,X_INTRODUCED_95_,X_INTRODUCED_96_,X_INTRODUCED_97_,X_INTRODUCED_98_,X_INTRODUCED_99_,X_INTRODUCED_100_,X_INTRODUCED_101_,X_INTRODUCED_102_,X_INTRODUCED_103_,X_INTRODUCED_104_,X_INTRODUCED_105_,X_INTRODUCED_106_,X_INTRODUCED_107_,X_INTRODUCED_108_,X_INTRODUCED_109_,X_INTRODUCED_110_,X_INTRODUCED_111_,X_INTRODUCED_112_,X_INTRODUCED_113_,X_INTRODUCED_114_,X_INTRODUCED_115_,X_INTRODUCED_116_,X_INTRODUCED_117_,X_INTRODUCED_118_,X_INTRODUCED_119_,X_INTRODUCED_120_,X_INTRODUCED_121_,X_INTRODUCED_122_,X_INTRODUCED_123_,X_INTRODUCED_124_,X_INTRODUCED_125_,X_INTRODUCED_126_,X_INTRODUCED_127_,X_INTRODUCED_128_,X_INTRODUCED_129_,X_INTRODUCED_130_,X_INTRODUCED_131_,X_INTRODUCED_132_,X_INTRODUCED_133_,X_INTRODUCED_134_,X_INTRODUCED_135_];
array [1..91] of var int: X_INTRODUCED_258_ ::var_is_introduced  = [X_INTRODUCED_17_,X_INTRODUCED_18_,X_INTRODUCED_19_,X_INTRODUCED_20_,X_INTRODUCED_21_,X_INTRODUCED_22_,X_INTRODUCED_23_,X_INTRODUCED_25_,X_INTRODUCED_26_,X_INTRODUCED_27_,X_INTRODUCED_28_,X_INTRODUCED_29_,X_INTRODUCED_32_,X_INTRODUCED_33_,X_INTRODUCED_34_,X_INTRODUCED_35_,X_INTRODUCED_36_,X_INTRODUCED_37_,X_INTRODUCED_38_,X_INTRODUCED_39_,X_INTRODUCED_40_,X_INTRODUCED_42_,X_INTRODUCED_43_,X_INTRODUCED_44_,X_INTRODUCED_45_,X_INTRODUCED_46_,X_INTRODUCED_47_,X_INTRODUCED_48_,X_INTRODUCED_49_,X_INTRODUCED_50_,X_INTRODUCED_51_,X_INTRODUCED_52_,X_INTRODUCED_53_,X_INTRODUCED_55_,X_INTRODUCED_56_,X_INTRODUCED_57_,X_INTRODUCED_58_,X_INTRODUCED_59_,X_INTRODUCED_61_,X_INTRODUCED_62_,X_INTRODUCED_64_,X_INTRODUCED_67_,X_INTRODUCED_68_,X_INTRODUCED_69_,X_INTRODUCED_70_,X_INTRODUCED_74_,X_INTRODUCED_75_,X_INTRODUCED_76_,X_INTRODUCED_78_,X_INTRODUCED_80_,X_INTRODUCED_82_,X_INTRODUCED_85_,X_INTRODUCED_86_,X_INTRODUCED_87_,X_INTRODUCED_88_,X_INTRODUCED_90_,X_INTRODUCED_91_,X_INTRODUCED_92_,X_INTRODUCED_94_,X_INTRODUCED_95_,X_INTRODUCED_97_,X_INTRODUCED_98_,X_INTRODUCED_99_,X_INTRODUCED_101_,X_INTRODUCED_102_,X_INTRODUCED_103_,X_INTRODUCED_104_,X_INTRODUCED_105_,X_INTRODUCED_106_,X_INTRODUCED_108_,X_INTRODUCED_109_,X_INTRODUCED_110_,X_INTRODUCED_111_,X_INTRODUCED_112_,X_INTRODUCED_114_,X_INTRODUCED_116_,X_INTRODUCED_117_,X_INTRODUCED_119_,X_INTRODUCED_120_,X_INTRODUCED_121_,X_INTRODUCED_122_,X_INTRODUCED_123_,X_INTRODUCED_124_,X_INTRODUCED_125_,X_INTRODUCED_126_,X_INTRODUCED_127_,X_INTRODUCED_129_,X_INTRODUCED_131_,X_INTRODUCED_132_,X_INTRODUCED_134_,X_INTRODUCED_135_];
array [1..95] of var int: X_INTRODUCED_261_ ::var_is_introduced  = [X_INTRODUCED_16_,X_INTRODUCED_17_,X_INTRODUCED_18_,X_INTRODUCED_19_,X_INTRODUCED_21_,X_INTRODUCED_23_,X_INTRODUCED_24_,X_INTRODUCED_25_,X_INTRODUCED_26_,X_INTRODUCED_27_,X_INTRODUCED_29_,X_INTRODUCED_30_,X_INTRODUCED_31_,X_INTRODUCED_32_,X_INTRODUCED_33_,X_INTRODUCED_35_,X_INTRODUCED_36_,X_INTRODUCED_37_,X_INTRODUCED_38_,X_INTRODUCED_39_,X_INTRODUCED_40_,X_INTRODUCED_41_,X_INTRODUCED_43_,X_INTRODUCED_45_,X_INTRODUCED_46_,X_INTRODUCED_47_,X_INTRODUCED_48_,X_INTRODUCED_49_,X_INTRODUCED_50_,X_INTRODUCED_51_,X_INTRODUCED_52_,X_INTRODUCED_53_,X_INTRODUCED_54_,X_INTRODUCED_55_,X_INTRODUCED_56_,X_INTRODUCED_58_,X_INTRODUCED_59_,X_INTRODUCED_60_,X_INTRODUCED_64_,X_INTRODUCED_65_,X_INTRODUCED_66_,X_INTRODUCED_67_,X_INTRODUCED_68_,X_INTRODUCED_69_,X_INTRODUCED_70_,X_INTRODUCED_72_,X_INTRODUCED_73_,X_INTRODUCED_74_,X_INTRODUCED_75_,X_INTRODUCED_78_,X_INTRODUCED_79_,X_INTRODUCED_80_,X_INTRODUCED_81_,X_INTRODUCED_84_,X_INTRODUCED_85_,X_INTRODUCED_86_,X_INTRODUCED_87_,X_INTRODUCED_88_,X_INTRODUCED_89_,X_INTRODUCED_91_,X_INTRODUCED_92_,X_INTRODUCED_93_,X_INTRODUCED_94_,X_INTRODUCED_95_,X_INTRODUCED_96_,X_INTRODUCED_98_,X_INTRODUCED_99_,X_INTRODUCED_100_,X_INTRODUCED_101_,X_INTRODUCED_102_,X_INTRODUCED_103_,X_INTRODUCED_105_,X_INTRODUCED_108_,X_INTRODUCED_110_,X_INTRODUCED_111_,X_INTRODUCED_113_,X_INTRODUCED_115_,X_INTRODUCED_116_,X_INTRODUCED_117_,X_INTRODUCED_118_,X_INTRODUCED_119_,X_INTRODUCED_120_,X_INTRODUCED_121_,X_INTRODUCED_123_,X_INTRODUCED_124_,X_INTRODUCED_125_,X_INTRODUCED_126_,X_INTRODUCED_127_,X_INTRODUCED_128_,X_INTRODUCED_129_,X_INTRODUCED_130_,X_INTRODUCED_131_,X_INTRODUCED_132_,X_INTRODUCED_133_,X_INTRODUCED_134_];
array [1..83] of var int: X_INTRODUCED_264_ ::var_is_introduced  = [X_INTRODUCED_16_,X_INTRODUCED_17_,X_INTRODUCED_18_,X_INTRODUCED_19_,X_INTRODUCED_20_,X_INTRODUCED_22_,X_INTRODUCED_23_,X_INTRODUCED_26_,X_INTRODUCED_30_,X_INTRODUCED_32_,X_INTRODUCED_33_,X_INTRODUCED_35_,X_INTRODUCED_38_,X_INTRODUCED_39_,X_INTRODUCED_42_,X_INTRODUCED_43_,X_INTRODUCED_44_,X_INTRODUCED_45_,X_INTRODUCED_46_,X_INTRODUCED_48_,X_INTRODUCED_50_,X_INTRODUCED_51_,X_INTRODUCED_52_,X_INTRODUCED_54_,X_INTRODUCED_55_,X_INTRODUCED_56_,X_INTRODUCED_58_,X_INTRODUCED_60_,X_INTRODUCED_61_,X_INTRODUCED_62_,X_INTRODUCED_63_,X_INTRODUCED_65_,X_INTRODUCED_66_,X_INTRODUCED_67_,X_INTRODUCED_68_,X_INTRODUCED_70_,X_INTRODUCED_72_,X_INTRODUCED_73_,X_INTRODUCED_74_,X_INTRODUCED_75_,X_INTRODUCED_76_,X_INTRODUCED_78_,X_INTRODUCED_79_,X_INTRODUCED_82_,X_INTRODUCED_83_,X_INTRODUCED_84_,X_INTRODUCED_85_,X_INTRODUCED_87_,X_INTRODUCED_88_,X_INTRODUCED_89_,X_INTRODUCED_90_,X_INTRODUCED_91_,X_INTRODUCED_92_,X_INTRODUCED_94_,X_INTRODUCED_96_,X_INTRODUCED_97_,X_INTRODUCED_98_,X_INTRODUCED_100_,X_INTRODUCED_101_,X_INTRODUCED_102_,X_INTRODUCED_103_,X_INTRODUCED_104_,X_INTRODUCED_106_,X_INTRODUCED_108_,X_INTRODUCED_109_,X_INTRODUCED_110_,X_INTRODUCED_111_,X_INTRODUCED_112_,X_INTRODUCED_113_,X_INTRODUCED_115_,X_INTRODUCED_116_,X_INTRODUCED_117_,X_INTRODUCED_118_,X_INTRODUCED_120_,X_INTRODUCED_123_,X_INTRODUCED_124_,X_INTRODUCED_125_,X_INTRODUCED_126_,X_INTRODUCED_128_,X_INTRODUCED_129_,X_INTRODUCED_130_,X_INTRODUCED_131_,X_INTRODUCED_135_];
array [1..91] of var int: X_INTRODUCED_267_ ::var_is_introduced  = [X_INTRODUCED_17_,X_INTRODUCED_18_,X_INTRODUCED_19_,X_INTRODUCED_20_,X_INTRODUCED_21_,X_INTRODUCED_22_,X_INTRODUCED_23_,X_INTRODUCED_24_,X_INTRODUCED_27_,X_INTRODUCED_28_,X_INTRODUCED_29_,X_INTRODUCED_30_,X_INTRODUCED_31_,X_INTRODUCED_35_,X_INTRODUCED_36_,X_INTRODUCED_37_,X_INTRODUCED_38_,X_INTRODUCED_40_,X_INTRODUCED_41_,X_INTRODUCED_42_,X_INTRODUCED_43_,X_INTRODUCED_44_,X_INTRODUCED_47_,X_INTRODUCED_49_,X_INTRODUCED_51_,X_INTRODUCED_53_,X_INTRODUCED_54_,X_INTRODUCED_56_,X_INTRODUCED_57_,X_INTRODUCED_58_,X_INTRODUCED_60_,X_INTRODUCED_61_,X_INTRODUCED_62_,X_INTRODUCED_63_,X_INTRODUCED_65_,X_INTRODUCED_66_,X_INTRODUCED_67_,X_INTRODUCED_68_,X_INTRODUCED_69_,X_INTRODUCED_70_,X_INTRODUCED_71_,X_INTRODUCED_72_,X_INTRODUCED_73_,X_INTRODUCED_74_,X_INTRODUCED_76_,X_INTRODUCED_77_,X_INTRODUCED_78_,X_INTRODUCED_79_,X_INTRODUCED_80_,X_INTRODUCED_81_,X_INTRODUCED_82_,X_INTRODUCED_83_,X_INTRODUCED_84_,X_INTRODUCED_85_,X_INTRODUCED_87_,X_INTRODUCED_88_,X_INTRODUCED_89_,X_INTRODUCED_91_,X_INTRODUCED_92_,X_INTRODUCED_93_,X_INTRODUCED_95_,X_INTRODUCED_96_,X_INTRODUCED_98_,X_INTRODUCED_99_,X_INTRODUCED_100_,X_INTRODUCED_101_,X_INTRODUCED_102_,X_INTRODUCED_104_,X_INTRODUCED_106_,X_INTRODUCED_107_,X_INTRODUCED_108_,X_INTRODUCED_110_,X_INTRODUCED_112_,X_INTRODUCED_113_,X_INTRODUCED_115_,X_INTRODUCED_117_,X_INTRODUCED_118_,X_INTRODUCED_120_,X_INTRODUCED_121_,X_INTRODUCED_122_,X_INTRODUCED_123_,X_INTRODUCED_124_,X_INTRODUCED_126_,X_INTRODUCED_127_,X_INTRODUCED_128_,X_INTRODUCED_130_,X_INTRODUCED_131_,X_INTRODUCED_132_,X_INTRODUCED_133_,X_INTRODUCED_134_,X_INTRODUCED_135_];
array [1..121] of var int: X_INTRODUCED_273_ ::var_is_introduced  = [X_INTRODUCED_16_,X_INTRODUCED_17_,X_INTRODUCED_18_,X_INTRODUCED_19_,X_INTRODUCED_20_,X_INTRODUCED_21_,X_INTRODUCED_22_,X_INTRODUCED_23_,X_INTRODUCED_24_,X_INTRODUCED_25_,X_INTRODUCED_26_,X_INTRODUCED_27_,X_INTRODUCED_28_,X_INTRODUCED_29_,X_INTRODUCED_30_,X_INTRODUCED_31_,X_INTRODUCED_32_,X_INTRODUCED_33_,X_INTRODUCED_34_,X_INTRODUCED_35_,X_INTRODUCED_36_,X_INTRODUCED_37_,X_INTRODUCED_38_,X_INTRODUCED_39_,X_INTRODUCED_40_,X_INTRODUCED_41_,X_INTRODUCED_42_,X_INTRODUCED_43_,X_INTRODUCED_44_,X_INTRODUCED_45_,X_INTRODUCED_46_,X_INTRODUCED_47_,X_INTRODUCED_48_,X_INTRODUCED_49_,X_INTRODUCED_50_,X_INTRODUCED_51_,X_INTRODUCED_52_,X_INTRODUCED_53_,X_INTRODUCED_54_,X_INTRODUCED_55_,X_INTRODUCED_56_,X_INTRODUCED_57_,X_INTRODUCED_58_,X_INTRODUCED_59_,X_INTRODUCED_60_,X_INTRODUCED_61_,X_INTRODUCED_62_,X_INTRODUCED_63_,X_INTRODUCED_64_,X_INTRODUCED_65_,X_INTRODUCED_66_,X_INTRODUCED_67_,X_INTRODUCED_68_,X_INTRODUCED_69_,X_INTRODUCED_70_,X_INTRODUCED_71_,X_INTRODUCED_72_,X_INTRODUCED_73_,X_INTRODUCED_74_,X_INTRODUCED_75_,X_INTRODUCED_76_,X_INTRODUCED_77_,X_INTRODUCED_78_,X_INTRODUCED_79_,X_INTRODUCED_80_,X_INTRODUCED_81_,X_INTRODUCED_82_,X_INTRODUCED_83_,X_INTRODUCED_84_,X_INTRODUCED_85_,X_INTRODUCED_86_,X_INTRODUCED_87_,X_INTRODUCED_88_,X_INTRODUCED_89_,X_INTRODUCED_90_,X_INTRODUCED_91_,X_INTRODUCED_92_,X_INTRODUCED_93_,X_INTRODUCED_94_,X_INTRODUCED_95_,X_INTRODUCED_96_,X_INTRODUCED_97_,X_INTRODUCED_98_,X_INTRODUCED_99_,X_INTRODUCED_100_,X_INTRODUCED_101_,X_INTRODUCED_102_,X_INTRODUCED_103_,X_INTRODUCED_104_,X_INTRODUCED_105_,X_INTRODUCED_106_,X_INTRODUCED_107_,X_INTRODUCED_108_,X_INTRODUCED_109_,X_INTRODUCED_110_,X_INTRODUCED_111_,X_INTRODUCED_112_,X_INTRODUCED_113_,X_INTRODUCED_114_,X_INTRODUCED_115_,X_INTRODUCED_116_,X_INTRODUCED_117_,X_INTRODUCED_118_,X_INTRODUCED_119_,X_INTRODUCED_120_,X_INTRODUCED_121_,X_INTRODUCED_122_,X_INTRODUCED_123_,X_INTRODUCED_124_,X_INTRODUCED_125_,X_INTRODUCED_126_,X_INTRODUCED_127_,X_INTRODUCED_128_,X_INTRODUCED_129_,X_INTRODUCED_130_,X_INTRODUCED_131_,X_INTRODUCED_132_,X_INTRODUCED_133_,X_INTRODUCED_134_,X_INTRODUCED_135_,Objective];
constraint int_lin_le(X_INTRODUCED_139_,[X_INTRODUCED_16_,X_INTRODUCED_25_],-3);
constraint int_lin_le(X_INTRODUCED_139_,[X_INTRODUCED_16_,X_INTRODUCED_27_],-3);
constraint int_lin_le(X_INTRODUCED_139_,[X_INTRODUCED_16_,X_INTRODUCED_28_],-3);
constraint int_lin_le(X_INTRODUCED_139_,[X_INTRODUCED_17_,X_INTRODUCED_20_],-8);
constraint int_lin_le(X_INTRODUCED_139_,[X_INTRODUCED_17_,X_INTRODUCED_31_],-8);
constraint int_lin_le(X_INTRODUCED_139_,[X_INTRODUCED_17_,X_INTRODUCED_57_],-8);
constraint int_lin_le(X_INTRODUCED_139_,[X_INTRODUCED_18_,X_INTRODUCED_19_],-7);
constraint int_lin_le(X_INTRODUCED_139_,[X_INTRODUCED_18_,X_INTRODUCED_21_],-7);
constraint int_lin_le(X_INTRODUCED_139_,[X_INTRODUCED_18_,X_INTRODUCED_53_],-7);
constraint int_lin_le(X_INTRODUCED_139_,[X_INTRODUCED_19_,X_INTRODUCED_23_],-10);
constraint int_lin_le(X_INTRODUCED_139_,[X_INTRODUCED_19_,X_INTRODUCED_47_],-10);
constraint int_lin_le(X_INTRODUCED_139_,[X_INTRODUCED_19_,X_INTRODUCED_56_],-10);
constraint int_lin_le(X_INTRODUCED_139_,[X_INTRODUCED_20_,X_INTRODUCED_27_],-9);
constraint int_lin_le(X_INTRODUCED_139_,[X_INTRODUCED_20_,X_INTRODUCED_86_],-9);
constraint int_lin_le(X_INTRODUCED_139_,[X_INTRODUCED_21_,X_INTRODUCED_22_],-1);
constraint int_lin_le(X_INTRODUCED_139_,[X_INTRODUCED_21_,X_INTRODUCED_29_],-1);
constraint int_lin_le(X_INTRODUCED_139_,[X_INTRODUCED_21_,X_INTRODUCED_44_],-1);
constraint int_lin_le(X_INTRODUCED_139_,[X_INTRODUCED_22_,X_INTRODUCED_24_],-2);
constraint int_lin_le(X_INTRODUCED_139_,[X_INTRODUCED_22_,X_INTRODUCED_32_],-2);
constraint int_lin_le(X_INTRODUCED_139_,[X_INTRODUCED_22_,X_INTRODUCED_50_],-2);
constraint int_lin_le(X_INTRODUCED_139_,[X_INTRODUCED_23_,X_INTRODUCED_38_],-3);
constraint int_lin_le(X_INTRODUCED_139_,[X_INTRODUCED_24_,X_INTRODUCED_26_],-6);
constraint int_lin_le(X_INTRODUCED_139_,[X_INTRODUCED_24_,X_INTRODUCED_34_],-6);
constraint int_lin_le(X_INTRODUCED_139_,[X_INTRODUCED_24_,X_INTRODUCED_37_],-6);
constraint int_lin_le(X_INTRODUCED_139_,[X_INTRODUCED_25_,X_INTRODUCED_45_],-8);
constraint int_lin_le(X_INTRODUCED_139_,[X_INTRODUCED_25_,X_INTRODUCED_60_],-8);
constraint int_lin_le(X_INTRODUCED_139_,[X_INTRODUCED_25_,X_INTRODUCED_66_],-8);
constraint int_lin_le(X_INTRODUCED_139_,[X_INTRODUCED_26_,X_INTRODUCED_41_],-3);
constraint int_lin_le(X_INTRODUCED_139_,[X_INTRODUCED_26_,X_INTRODUCED_78_],-3);
constraint int_lin_le(X_INTRODUCED_139_,[X_INTRODUCED_26_,X_INTRODUCED_90_],-3);
constraint int_lin_le(X_INTRODUCED_139_,[X_INTRODUCED_27_,X_INTRODUCED_30_],-9);
constraint int_lin_le(X_INTRODUCED_139_,[X_INTRODUCED_27_,X_INTRODUCED_71_],-9);
constraint int_lin_le(X_INTRODUCED_139_,[X_INTRODUCED_28_,X_INTRODUCED_40_],-7);
constraint int_lin_le(X_INTRODUCED_139_,[X_INTRODUCED_28_,X_INTRODUCED_64_],-7);
constraint int_lin_le(X_INTRODUCED_139_,[X_INTRODUCED_28_,X_INTRODUCED_102_],-7);
constraint int_lin_le(X_INTRODUCED_139_,[X_INTRODUCED_29_,X_INTRODUCED_38_],-9);
constraint int_lin_le(X_INTRODUCED_139_,[X_INTRODUCED_29_,X_INTRODUCED_112_],-9);
constraint int_lin_le(X_INTRODUCED_139_,[X_INTRODUCED_30_,X_INTRODUCED_35_],-10);
constraint int_lin_le(X_INTRODUCED_139_,[X_INTRODUCED_30_,X_INTRODUCED_61_],-10);
constraint int_lin_le(X_INTRODUCED_139_,[X_INTRODUCED_30_,X_INTRODUCED_87_],-10);
constraint int_lin_le(X_INTRODUCED_139_,[X_INTRODUCED_31_,X_INTRODUCED_33_],-10);
constraint int_lin_le(X_INTRODUCED_139_,[X_INTRODUCED_31_,X_INTRODUCED_48_],-10);
constraint int_lin_le(X_INTRODUCED_139_,[X_INTRODUCED_32_,X_INTRODUCED_46_],-9);
constraint int_lin_le(X_INTRODUCED_139_,[X_INTRODUCED_33_,X_INTRODUCED_39_],-2);
constraint int_lin_le(X_INTRODUCED_139_,[X_INTRODUCED_33_,X_INTRODUCED_55_],-2);
constraint int_lin_le(X_INTRODUCED_139_,[X_INTRODUCED_33_,X_INTRODUCED_58_],-2);
constraint int_lin_le(X_INTRODUCED_139_,[X_INTRODUCED_34_,X_INTRODUCED_36_],-7);
constraint int_lin_le(X_INTRODUCED_139_,[X_INTRODUCED_34_,X_INTRODUCED_43_],-7);
constraint int_lin_le(X_INTRODUCED_139_,[X_INTRODUCED_34_,X_INTRODUCED_73_],-7);
constraint int_lin_le(X_INTRODUCED_139_,[X_INTRODUCED_35_,X_INTRODUCED_95_],-7);
constraint int_lin_le(X_INTRODUCED_139_,[X_INTRODUCED_35_,X_INTRODUCED_106_],-7);
constraint int_lin_le(X_INTRODUCED_139_,[X_INTRODUCED_35_,X_INTRODUCED_127_],-7);
constraint int_lin_le(X_INTRODUCED_139_,[X_INTRODUCED_36_,X_INTRODUCED_51_],-3);
constraint int_lin_le(X_INTRODUCED_139_,[X_INTRODUCED_36_,X_INTRODUCED_54_],-3);
constraint int_lin_le(X_INTRODUCED_139_,[X_INTRODUCED_36_,X_INTRODUCED_75_],-3);
constraint int_lin_le(X_INTRODUCED_139_,[X_INTRODUCED_37_,X_INTRODUCED_80_],-4);
constraint int_lin_le(X_INTRODUCED_139_,[X_INTRODUCED_37_,X_INTRODUCED_98_],-4);
constraint int_lin_le(X_INTRODUCED_139_,[X_INTRODUCED_37_,X_INTRODUCED_103_],-4);
constraint int_lin_le(X_INTRODUCED_139_,[X_INTRODUCED_38_,X_INTRODUCED_40_],-10);
constraint int_lin_le(X_INTRODUCED_139_,[X_INTRODUCED_38_,X_INTRODUCED_104_],-10);
constraint int_lin_le(X_INTRODUCED_139_,[X_INTRODUCED_38_,X_INTRODUCED_105_],-10);
constraint int_lin_le(X_INTRODUCED_139_,[X_INTRODUCED_39_,X_INTRODUCED_42_],-9);
constraint int_lin_le(X_INTRODUCED_139_,[X_INTRODUCED_40_,X_INTRODUCED_108_],-2);
constraint int_lin_le(X_INTRODUCED_139_,[X_INTRODUCED_41_,X_INTRODUCED_46_],-8);
constraint int_lin_le(X_INTRODUCED_139_,[X_INTRODUCED_41_,X_INTRODUCED_64_],-8);
constraint int_lin_le(X_INTRODUCED_139_,[X_INTRODUCED_42_,X_INTRODUCED_49_],-7);
constraint int_lin_le(X_INTRODUCED_139_,[X_INTRODUCED_43_,X_INTRODUCED_125_],-8);
constraint int_lin_le(X_INTRODUCED_139_,[X_INTRODUCED_44_,X_INTRODUCED_70_],-9);
constraint int_lin_le(X_INTRODUCED_139_,[X_INTRODUCED_45_,X_INTRODUCED_50_],-2);
constraint int_lin_le(X_INTRODUCED_139_,[X_INTRODUCED_45_,X_INTRODUCED_96_],-2);
constraint int_lin_le(X_INTRODUCED_139_,[X_INTRODUCED_46_,X_INTRODUCED_52_],-7);
constraint int_lin_le(X_INTRODUCED_139_,[X_INTRODUCED_46_,X_INTRODUCED_120_],-7);
constraint int_lin_le(X_INTRODUCED_139_,[X_INTRODUCED_46_,X_INTRODUCED_122_],-7);
constraint int_lin_le(X_INTRODUCED_139_,[X_INTRODUCED_47_,X_INTRODUCED_65_],-2);
constraint int_lin_le(X_INTRODUCED_139_,[X_INTRODUCED_47_,X_INTRODUCED_130_],-2);
constraint int_lin_le(X_INTRODUCED_139_,[X_INTRODUCED_48_,X_INTRODUCED_66_],-7);
constraint int_lin_le(X_INTRODUCED_139_,[X_INTRODUCED_49_,X_INTRODUCED_52_],-6);
constraint int_lin_le(X_INTRODUCED_139_,[X_INTRODUCED_49_,X_INTRODUCED_91_],-6);
constraint int_lin_le(X_INTRODUCED_139_,[X_INTRODUCED_50_,X_INTRODUCED_86_],-3);
constraint int_lin_le(X_INTRODUCED_139_,[X_INTRODUCED_50_,X_INTRODUCED_109_],-3);
constraint int_lin_le(X_INTRODUCED_139_,[X_INTRODUCED_50_,X_INTRODUCED_113_],-3);
constraint int_lin_le(X_INTRODUCED_139_,[X_INTRODUCED_51_,X_INTRODUCED_60_],-10);
constraint int_lin_le(X_INTRODUCED_139_,[X_INTRODUCED_51_,X_INTRODUCED_67_],-10);
constraint int_lin_le(X_INTRODUCED_139_,[X_INTRODUCED_51_,X_INTRODUCED_94_],-10);
constraint int_lin_le(X_INTRODUCED_139_,[X_INTRODUCED_52_,X_INTRODUCED_63_],-3);
constraint int_lin_le(X_INTRODUCED_139_,[X_INTRODUCED_53_,X_INTRODUCED_68_],-9);
constraint int_lin_le(X_INTRODUCED_139_,[X_INTRODUCED_54_,X_INTRODUCED_86_],-9);
constraint int_lin_le(X_INTRODUCED_139_,[X_INTRODUCED_54_,X_INTRODUCED_97_],-9);
constraint int_lin_le(X_INTRODUCED_139_,[X_INTRODUCED_55_,X_INTRODUCED_119_],-5);
constraint int_lin_le(X_INTRODUCED_139_,[X_INTRODUCED_56_,X_INTRODUCED_59_],-1);
constraint int_lin_le(X_INTRODUCED_139_,[X_INTRODUCED_56_,X_INTRODUCED_69_],-1);
constraint int_lin_le(X_INTRODUCED_139_,[X_INTRODUCED_56_,X_INTRODUCED_90_],-1);
constraint int_lin_le(X_INTRODUCED_139_,[X_INTRODUCED_57_,X_INTRODUCED_74_],-6);
constraint int_lin_le(X_INTRODUCED_139_,[X_INTRODUCED_57_,X_INTRODUCED_105_],-6);
constraint int_lin_le(X_INTRODUCED_139_,[X_INTRODUCED_58_,X_INTRODUCED_133_],-1);
constraint int_lin_le(X_INTRODUCED_139_,[X_INTRODUCED_59_,X_INTRODUCED_83_],-8);
constraint int_lin_le(X_INTRODUCED_139_,[X_INTRODUCED_59_,X_INTRODUCED_101_],-8);
constraint int_lin_le(X_INTRODUCED_139_,[X_INTRODUCED_59_,X_INTRODUCED_115_],-8);
constraint int_lin_le(X_INTRODUCED_139_,[X_INTRODUCED_60_,X_INTRODUCED_72_],-2);
constraint int_lin_le(X_INTRODUCED_139_,[X_INTRODUCED_60_,X_INTRODUCED_83_],-2);
constraint int_lin_le(X_INTRODUCED_139_,[X_INTRODUCED_60_,X_INTRODUCED_129_],-2);
constraint int_lin_le(X_INTRODUCED_139_,[X_INTRODUCED_61_,X_INTRODUCED_62_],-2);
constraint int_lin_le(X_INTRODUCED_139_,[X_INTRODUCED_61_,X_INTRODUCED_67_],-2);
constraint int_lin_le(X_INTRODUCED_139_,[X_INTRODUCED_62_,X_INTRODUCED_63_],-10);
constraint int_lin_le(X_INTRODUCED_139_,[X_INTRODUCED_62_,X_INTRODUCED_101_],-10);
constraint int_lin_le(X_INTRODUCED_139_,[X_INTRODUCED_63_,X_INTRODUCED_82_],-3);
constraint int_lin_le(X_INTRODUCED_139_,[X_INTRODUCED_63_,X_INTRODUCED_108_],-3);
constraint int_lin_le(X_INTRODUCED_139_,[X_INTRODUCED_63_,X_INTRODUCED_110_],-3);
constraint int_lin_le(X_INTRODUCED_139_,[X_INTRODUCED_64_,X_INTRODUCED_97_],-6);
constraint int_lin_le(X_INTRODUCED_139_,[X_INTRODUCED_65_,X_INTRODUCED_83_],-7);
constraint int_lin_le(X_INTRODUCED_139_,[X_INTRODUCED_65_,X_INTRODUCED_92_],-7);
constraint int_lin_le(X_INTRODUCED_139_,[X_INTRODUCED_66_,X_INTRODUCED_76_],-3);
constraint int_lin_le(X_INTRODUCED_139_,[X_INTRODUCED_66_,X_INTRODUCED_112_],-3);
constraint int_lin_le(X_INTRODUCED_139_,[X_INTRODUCED_67_,X_INTRODUCED_92_],-2);
constraint int_lin_le(X_INTRODUCED_139_,[X_INTRODUCED_67_,X_INTRODUCED_100_],-2);
constraint int_lin_le(X_INTRODUCED_139_,[X_INTRODUCED_68_,X_INTRODUCED_102_],-1);
constraint int_lin_le(X_INTRODUCED_139_,[X_INTRODUCED_69_,X_INTRODUCED_81_],-4);
constraint int_lin_le(X_INTRODUCED_139_,[X_INTRODUCED_69_,X_INTRODUCED_102_],-4);
constraint int_lin_le(X_INTRODUCED_139_,[X_INTRODUCED_69_,X_INTRODUCED_111_],-4);
constraint int_lin_le(X_INTRODUCED_139_,[X_INTRODUCED_70_,X_INTRODUCED_92_],-5);
constraint int_lin_le(X_INTRODUCED_139_,[X_INTRODUCED_71_,X_INTRODUCED_94_],-9);
constraint int_lin_le(X_INTRODUCED_139_,[X_INTRODUCED_72_,X_INTRODUCED_106_],-2);
constraint int_lin_le(X_INTRODUCED_139_,[X_INTRODUCED_72_,X_INTRODUCED_109_],-2);
constraint int_lin_le(X_INTRODUCED_139_,[X_INTRODUCED_72_,X_INTRODUCED_120_],-2);
constraint int_lin_le(X_INTRODUCED_139_,[X_INTRODUCED_73_,X_INTRODUCED_77_],-9);
constraint int_lin_le(X_INTRODUCED_139_,[X_INTRODUCED_73_,X_INTRODUCED_84_],-9);
constraint int_lin_le(X_INTRODUCED_139_,[X_INTRODUCED_74_,X_INTRODUCED_87_],-5);
constraint int_lin_le(X_INTRODUCED_139_,[X_INTRODUCED_74_,X_INTRODUCED_123_],-5);
constraint int_lin_le(X_INTRODUCED_139_,[X_INTRODUCED_75_,X_INTRODUCED_104_],-7);
constraint int_lin_le(X_INTRODUCED_139_,[X_INTRODUCED_76_,X_INTRODUCED_84_],-6);
constraint int_lin_le(X_INTRODUCED_139_,[X_INTRODUCED_76_,X_INTRODUCED_118_],-6);
constraint int_lin_le(X_INTRODUCED_139_,[X_INTRODUCED_77_,X_INTRODUCED_79_],-9);
constraint int_lin_le(X_INTRODUCED_139_,[X_INTRODUCED_78_,X_INTRODUCED_82_],-7);
constraint int_lin_le(X_INTRODUCED_139_,[X_INTRODUCED_78_,X_INTRODUCED_89_],-7);
constraint int_lin_le(X_INTRODUCED_139_,[X_INTRODUCED_78_,X_INTRODUCED_116_],-7);
constraint int_lin_le(X_INTRODUCED_139_,[X_INTRODUCED_79_,X_INTRODUCED_112_],-6);
constraint int_lin_le(X_INTRODUCED_139_,[X_INTRODUCED_79_,X_INTRODUCED_113_],-6);
constraint int_lin_le(X_INTRODUCED_139_,[X_INTRODUCED_79_,X_INTRODUCED_118_],-6);
constraint int_lin_le(X_INTRODUCED_139_,[X_INTRODUCED_80_,X_INTRODUCED_84_],-6);
constraint int_lin_le(X_INTRODUCED_139_,[X_INTRODUCED_80_,X_INTRODUCED_97_],-6);
constraint int_lin_le(X_INTRODUCED_139_,[X_INTRODUCED_81_,X_INTRODUCED_113_],-7);
constraint int_lin_le(X_INTRODUCED_139_,[X_INTRODUCED_82_,X_INTRODUCED_88_],-6);
constraint int_lin_le(X_INTRODUCED_139_,[X_INTRODUCED_83_,X_INTRODUCED_85_],-4);
constraint int_lin_le(X_INTRODUCED_139_,[X_INTRODUCED_83_,X_INTRODUCED_99_],-4);
constraint int_lin_le(X_INTRODUCED_139_,[X_INTRODUCED_84_,X_INTRODUCED_93_],-2);
constraint int_lin_le(X_INTRODUCED_139_,[X_INTRODUCED_84_,X_INTRODUCED_101_],-2);
constraint int_lin_le(X_INTRODUCED_139_,[X_INTRODUCED_85_,X_INTRODUCED_116_],-9);
constraint int_lin_le(X_INTRODUCED_139_,[X_INTRODUCED_86_,X_INTRODUCED_99_],-10);
constraint int_lin_le(X_INTRODUCED_139_,[X_INTRODUCED_87_,X_INTRODUCED_115_],-6);
constraint int_lin_le(X_INTRODUCED_139_,[X_INTRODUCED_88_,X_INTRODUCED_94_],-3);
constraint int_lin_le(X_INTRODUCED_139_,[X_INTRODUCED_88_,X_INTRODUCED_126_],-3);
constraint int_lin_le(X_INTRODUCED_139_,[X_INTRODUCED_89_,X_INTRODUCED_132_],-1);
constraint int_lin_le(X_INTRODUCED_139_,[X_INTRODUCED_90_,X_INTRODUCED_91_],-7);
constraint int_lin_le(X_INTRODUCED_139_,[X_INTRODUCED_90_,X_INTRODUCED_98_],-7);
constraint int_lin_le(X_INTRODUCED_139_,[X_INTRODUCED_91_,X_INTRODUCED_109_],-10);
constraint int_lin_le(X_INTRODUCED_139_,[X_INTRODUCED_92_,X_INTRODUCED_96_],-6);
constraint int_lin_le(X_INTRODUCED_139_,[X_INTRODUCED_92_,X_INTRODUCED_111_],-6);
constraint int_lin_le(X_INTRODUCED_139_,[X_INTRODUCED_92_,X_INTRODUCED_116_],-6);
constraint int_lin_le(X_INTRODUCED_139_,[X_INTRODUCED_93_,X_INTRODUCED_122_],-1);
constraint int_lin_le(X_INTRODUCED_139_,[X_INTRODUCED_94_,X_INTRODUCED_96_],-6);
constraint int_lin_le(X_INTRODUCED_139_,[X_INTRODUCED_95_,X_INTRODUCED_117_],-10);
constraint int_lin_le(X_INTRODUCED_139_,[X_INTRODUCED_95_,X_INTRODUCED_123_],-10);
constraint int_lin_le(X_INTRODUCED_139_,[X_INTRODUCED_95_,X_INTRODUCED_129_],-10);
constraint int_lin_le(X_INTRODUCED_139_,[X_INTRODUCED_96_,X_INTRODUCED_107_],-8);
constraint int_lin_le(X_INTRODUCED_139_,[X_INTRODUCED_97_,X_INTRODUCED_115_],-3);
constraint int_lin_le(X_INTRODUCED_139_,[X_INTRODUCED_98_,X_INTRODUCED_100_],-6);
constraint int_lin_le(X_INTRODUCED_139_,[X_INTRODUCED_99_,X_INTRODUCED_103_],-1);
constraint int_lin_le(X_INTRODUCED_139_,[X_INTRODUCED_100_,X_INTRODUCED_104_],-9);
constraint int_lin_le(X_INTRODUCED_139_,[X_INTRODUCED_100_,X_INTRODUCED_110_],-9);
constraint int_lin_le(X_INTRODUCED_139_,[X_INTRODUCED_101_,X_INTRODUCED_105_],-10);
constraint int_lin_le(X_INTRODUCED_139_,[X_INTRODUCED_101_,X_INTRODUCED_106_],-10);
constraint int_lin_le(X_INTRODUCED_139_,[X_INTRODUCED_102_,X_INTRODUCED_117_],-3);
constraint int_lin_le(X_INTRODUCED_139_,[X_INTRODUCED_102_,X_INTRODUCED_128_],-3);
constraint int_lin_le(X_INTRODUCED_139_,[X_INTRODUCED_103_,X_INTRODUCED_114_],-5);
constraint int_lin_le(X_INTRODUCED_139_,[X_INTRODUCED_103_,X_INTRODUCED_121_],-5);
constraint int_lin_le(X_INTRODUCED_139_,[X_INTRODUCED_104_,X_INTRODUCED_120_],-3);
constraint int_lin_le(X_INTRODUCED_139_,[X_INTRODUCED_104_,X_INTRODUCED_126_],-3);
constraint int_lin_le(X_INTRODUCED_139_,[X_INTRODUCED_105_,X_INTRODUCED_131_],-3);
constraint int_lin_le(X_INTRODUCED_139_,[X_INTRODUCED_106_,X_INTRODUCED_108_],-6);
constraint int_lin_le(X_INTRODUCED_139_,[X_INTRODUCED_106_,X_INTRODUCED_121_],-6);
constraint int_lin_le(X_INTRODUCED_139_,[X_INTRODUCED_106_,X_INTRODUCED_124_],-6);
constraint int_lin_le(X_INTRODUCED_139_,[X_INTRODUCED_107_,X_INTRODUCED_114_],-10);
constraint int_lin_le(X_INTRODUCED_139_,[X_INTRODUCED_108_,X_INTRODUCED_131_],-9);
constraint int_lin_le(X_INTRODUCED_139_,[X_INTRODUCED_109_,X_INTRODUCED_131_],-7);
constraint int_lin_le(X_INTRODUCED_139_,[X_INTRODUCED_110_,X_INTRODUCED_111_],-3);
constraint int_lin_le(X_INTRODUCED_139_,[X_INTRODUCED_110_,X_INTRODUCED_124_],-3);
constraint int_lin_le(X_INTRODUCED_139_,[X_INTRODUCED_111_,X_INTRODUCED_118_],-9);
constraint int_lin_le(X_INTRODUCED_139_,[X_INTRODUCED_111_,X_INTRODUCED_127_],-9);
constraint int_lin_le(X_INTRODUCED_139_,[X_INTRODUCED_112_,X_INTRODUCED_114_],-3);
constraint int_lin_le(X_INTRODUCED_139_,[X_INTRODUCED_113_,X_INTRODUCED_119_],-2);
constraint int_lin_le(X_INTRODUCED_139_,[X_INTRODUCED_114_,X_INTRODUCED_127_],-10);
constraint int_lin_le(X_INTRODUCED_139_,[X_INTRODUCED_114_,X_INTRODUCED_134_],-10);
constraint int_lin_le(X_INTRODUCED_139_,[X_INTRODUCED_115_,X_INTRODUCED_125_],-8);
constraint int_lin_le(X_INTRODUCED_139_,[X_INTRODUCED_115_,X_INTRODUCED_126_],-8);
constraint int_lin_le(X_INTRODUCED_139_,[X_INTRODUCED_116_,X_INTRODUCED_119_],-5);
constraint int_lin_le(X_INTRODUCED_139_,[X_INTRODUCED_117_,X_INTRODUCED_121_],-2);
constraint int_lin_le(X_INTRODUCED_139_,[X_INTRODUCED_117_,X_INTRODUCED_122_],-2);
constraint int_lin_le(X_INTRODUCED_139_,[X_INTRODUCED_118_,X_INTRODUCED_129_],-5);
constraint int_lin_le(X_INTRODUCED_139_,[X_INTRODUCED_119_,X_INTRODUCED_128_],-7);
constraint int_lin_le(X_INTRODUCED_139_,[X_INTRODUCED_119_,X_INTRODUCED_135_],-7);
constraint int_lin_le(X_INTRODUCED_139_,[X_INTRODUCED_120_,X_INTRODUCED_123_],-3);
constraint int_lin_le(X_INTRODUCED_139_,[X_INTRODUCED_121_,X_INTRODUCED_133_],-2);
constraint int_lin_le(X_INTRODUCED_139_,[X_INTRODUCED_122_,X_INTRODUCED_130_],-9);
constraint int_lin_le(X_INTRODUCED_139_,[X_INTRODUCED_123_,X_INTRODUCED_124_],-3);
constraint int_lin_le(X_INTRODUCED_139_,[X_INTRODUCED_124_,X_INTRODUCED_125_],-9);
constraint int_lin_le(X_INTRODUCED_139_,[X_INTRODUCED_124_,X_INTRODUCED_130_],-9);
constraint int_lin_le(X_INTRODUCED_139_,[X_INTRODUCED_125_,X_INTRODUCED_128_],-10);
constraint int_lin_le(X_INTRODUCED_139_,[X_INTRODUCED_126_,X_INTRODUCED_132_],-4);
constraint int_lin_le(X_INTRODUCED_139_,[X_INTRODUCED_127_,X_INTRODUCED_135_],-3);
constraint int_lin_le(X_INTRODUCED_139_,[X_INTRODUCED_128_,X_INTRODUCED_133_],-5);
constraint int_lin_le(X_INTRODUCED_139_,[X_INTRODUCED_129_,X_INTRODUCED_134_],-9);
constraint int_lin_le(X_INTRODUCED_139_,[X_INTRODUCED_130_,X_INTRODUCED_132_],-6);
constraint int_lin_le(X_INTRODUCED_139_,[X_INTRODUCED_131_,X_INTRODUCED_135_],-4);
constraint int_lin_le(X_INTRODUCED_139_,[X_INTRODUCED_132_,X_INTRODUCED_134_],-7);
constraint pumpkin_cumulative(X_INTRODUCED_258_,X_INTRODUCED_257_,X_INTRODUCED_256_,37);
constraint pumpkin_cumulative(X_INTRODUCED_261_,X_INTRODUCED_260_,X_INTRODUCED_259_,42);
constraint pumpkin_cumulative(X_INTRODUCED_264_,X_INTRODUCED_263_,X_INTRODUCED_262_,28);
constraint pumpkin_cumulative(X_INTRODUCED_267_,X_INTRODUCED_266_,X_INTRODUCED_265_,31);
constraint int_lin_le(X_INTRODUCED_270_,[X_INTRODUCED_133_,Objective],-8);
constraint int_lin_le(X_INTRODUCED_270_,[X_INTRODUCED_134_,Objective],-4);
constraint int_lin_le(X_INTRODUCED_270_,[X_INTRODUCED_135_,Objective],-8);
solve :: int_search(X_INTRODUCED_273_,smallest,indomain_min,complete) minimize Objective;
